(set-logic ALL)
(declare-fun var0 () String)
(assert (str.in_re var0 (re.++ (re.+ (re.union (str.to_re "00") (str.to_re "111"))) (re.++ (re.+ (re.* (str.to_re "2"))) (re.++ (re.+ (re.* (str.to_re "33"))) (re.++ (re.+ (re.+ (str.to_re "444"))) (re.++ (re.+ (re.* (str.to_re "5"))) (re.++ (re.+ (re.+ (str.to_re "666"))) (re.++ (re.union (re.* (str.to_re "7")) (re.* (str.to_re "8"))) (re.++ (re.* (re.union (str.to_re "99") (str.to_re "aaa"))) (re.++ (re.+ (re.+ (str.to_re "bbb"))) (re.++ (re.* (re.* (str.to_re "cc"))) (re.++ (re.union (re.* (str.to_re "d")) (re.* (str.to_re "e"))) (re.++ (re.* (re.* (str.to_re "ff"))) (re.++ (re.* (re.union (str.to_re "g") (str.to_re "h"))) (re.++ (re.* (re.+ (str.to_re "i"))) (re.++ (re.union (re.union (str.to_re "jj") (str.to_re "k")) (re.union (str.to_re "l") (str.to_re "mmm"))) (re.++ (re.union (re.union (str.to_re "nn") (str.to_re "ooo")) (re.union (str.to_re "ppp") (str.to_re "qq"))) (re.++ (re.union (re.union (str.to_re "rr") (str.to_re "sss")) (re.union (str.to_re "t") (str.to_re "uu"))) (re.++ (re.* (re.+ (str.to_re "vv"))) (re.++ (re.union (re.+ (str.to_re "w")) (re.+ (str.to_re "x"))) (re.++ (re.* (re.* (str.to_re "yyy"))) (re.++ (re.union (re.+ (str.to_re "zz")) (re.+ (str.to_re "AA"))) (re.++ (re.union (re.* (str.to_re "BBB")) (re.* (str.to_re "CC"))) (re.++ (re.union (re.* (str.to_re "D")) (re.* (str.to_re "E"))) (re.++ (re.+ (re.* (str.to_re "FFF"))) (re.++ (re.union (re.* (str.to_re "G")) (re.* (str.to_re "HH"))) (re.++ (re.union (re.+ (str.to_re "III")) (re.+ (str.to_re "J"))) (re.++ (re.union (re.+ (str.to_re "KKK")) (re.+ (str.to_re "LL"))) (re.++ (re.* (re.+ (str.to_re "M"))) (re.* (re.union (str.to_re "NNN") (str.to_re "OO")))))))))))))))))))))))))))))))))
(check-sat)